

variable Tm equal $T*1.5
variable Te equal 0.4

# Define molecule
molecule    mymol ${the_path}/data/${molecule}

# Define units and dimensions
dimension   2
units       lj

# Define type of atoms
atom_style  template mymol

# Define interaction potentials
pair_style  lj/cut 2.5
pair_modify shift yes

if "${atoms} > 1" then &
    "bond_style harmonic"

if "${atoms} > 2" then &
    "angle_style harmonic"

boundary p p p

# Read in interaction parameters
read_data   ${the_path}/data/${mol_settings}

if "${boundary} == 1" then &
    "variable x_min equal lx/4"&
    "variable x_max equal 3*lx/4"&
    "variable y_min equal 0"&
    "variable y_max equal ly"
if "${boundary} == 2" then &
    "variable x_min equal 0"&
    "variable x_max equal lx"&
    "variable y_min equal ly/4"&
    "variable y_max equal 3*ly/4"

# Create region in middle
region middle block ${x_min} ${x_max} ${y_min} ${y_max} -0.5 0.5
group static region middle
group mobile subtract all static


# Give all atoms the property diameter
fix 5 all property/atom d_diam
set type 1 d_diam 2
variable diam equal ${radius}*2
if "${diam} != 2" then &
    "set type 2 d_diam ${diam}"
compute diam all property/atom d_diam

# Thermodynamic output
thermo          1000
thermo_style    custom step temp press pxx pyy pxy etotal ke pe enthalpy density lx ly xy

log     ${my_path}/logs/create.log

# Neighbours don't interact with lj potential
neigh_modify exclude molecule all

# Equilibration parameters
fix 1 all npt temp ${Te} ${Te} 10 x ${press} ${press} 10 y ${press} ${press} 10 xy 0 0 10
fix 2 all enforce2d

# Give particles an initial velocity
velocity all create ${Tm} 122
run 0
velocity all scale ${Tm}

# Equilibrate crystal
run ${steps}

unfix 1
# Simulation parameters, bonds not able to move 
fix 3 mobile npt temp ${Tm} ${Tm} 10 x ${press} ${press} 10 y ${press} ${press} 10 xy 0 0 10
fix 4 static setforce 0.0 0.0 0.0


velocity all zero linear
velocity all zero angular

velocity mobile create ${Tm} 1231212
run 0
velocity mobile scale ${Tm}


dump d2 all image 10000 images/*.jpg type c_diam size 3200 2400

# Create melted region
run ${steps}


# Write restart before minimisation
write_restart   ${the_path}/restarts/${last_restart}
