# Define molecule
molecule    mymol ${the_path}/data/${molecule}

# Define units and dimensions
dimension   2
units       lj

# Define type of atoms
atom_style  template mymol

# Define interaction potentials
pair_style  lj/cut 2.5
pair_modify shift yes

if "${atoms} > 1" then &
    "bond_style harmonic"

if "${atoms} > 2" then &
    "angle_style harmonic"

boundary p p p

# Read in interaction parameters
read_data   ${the_path}/data/${mol_settings}

# Exclude bonded interactions for MD steps
neigh_modify exclude molecule all

# Give all atoms the property diameter
fix 5 all property/atom d_diam
set type 1 d_diam 2
variable diam equal ${radius}*2 
if "${diam} != 2" then &
    "set type 2 d_diam ${diam}"
compute diam all property/atom d_diam

# Thermodynamic output
thermo          1000
thermo_style    custom step temp press pxx pyy pxy etotal ke pe enthalpy density lx ly xy

log     ${my_path}/logs/create.log

# Simulation parameters, bonds not able to move 
fix 1 all npt temp $T $T 10 x ${press} ${press} 10 y ${press} ${press} 10 xy 0 0 10
fix 2 all enforce2d

# Give particles an initial velocity
velocity all create $T 122
run 0
velocity all scale $T

timestep 1e-3

# Write restart before minimisation
write_restart   ${the_path}/restarts/${last_restart}
