# Using rigid molecules

# Define molecule
molecule    mymol ${the_path}/data/${molecule}

# Define units and dimensions
dimension   2
units       lj

# Define type of atoms
atom_style  template mymol

# Define interaction potentials
pair_style  lj/cut 2.5
pair_modify shift yes

if "${atoms} > 1" then &
    "bond_style harmonic"

if "${atoms} > 2" then &
    "angle_style harmonic"

boundary f f p

# Read in interaction parameters
read_data   ${the_path}/data/${mymol}-${dimer}.dat

# Exclude bonded interactions for MD steps
neigh_modify exclude molecule all

# Give all atoms the property diameter
fix 5 all property/atom d_diam
set type 1 d_diam 2
variable diam equal ${radius}*2 
if "${diam} != 2" then &
    "set type 2 d_diam ${diam}"
compute diam all property/atom d_diam

# Thermodynamic output
thermo          1000
thermo_style    custom step temp press pxx pyy pxy etotal ke pe enthalpy density lx ly xy

log     ${my_path}/logs/${dimer}.log

fix 2 all enforce2d

# Dump configuration printevery steps. Image is dumped at beginning and end
dump 2 all image ${steps} ${my_path}/images/${dimer}-*.jpg  type c_diam size 2048 2048 box yes 1e-3 zoom 1.5

min_style cg

minimize 1e-6 1e-8 1000 1000
