# Using rigid molecules

# Define molecule
molecule    mymol ${the_path}/data/${molecule}

read_restart ${the_path}/restarts/${restart}

reset_timestep  0

# Thermodynamic output
thermo          1000
thermo_style    custom step temp press pxx pyy pxy etotal ke pe enthalpy density lx ly xy

# log file name
log     ${my_path}/logs/prod.log

fix 5 all property/atom d_diam
set type 1 d_diam 2
variable diam equal ${radius}*2 
if "${diam} != 2" then &
    "set type 2 d_diam ${diam}"
compute diam all property/atom d_diam

# Simulation parameters, bonds not able to move 
fix 1 all npt temp $T $T 10 iso ${press} ${press} 10
fix 2 all enforce2d
fix 3 all momentum 100 linear 1 1 0

# Dump configuration printevery steps. Image is dumped at beginning and end
dump 1 all custom ${steps} ${my_path}/trj/out.lammpstrj id mol type c_diam x y z

if "${printevery} == 0" then &
    "variable f file ${my_path}/steps.dat"&
    "variable p equal next(f)" &
else &
    "variable p equal stride(${printevery},${steps},${printevery})"

dump_modify 1 every v_p
dump_modify 1 first yes
dump_modify 1 pad 10

if "$T == 5" then &
    "timestep 1e-3"
timestep 1e-3

run ${steps}

# Write restart before minimisation
write_restart   ${the_path}/restarts/${restart}

min_style cg
# CG minimization doesn't allow for rigid molecules, static bonds are
# approximated with a strong harmonic potential.

dump_modify 1 every 1000
minimize 1e-6 1e-8 1000 1000

